p cnf 195 1206 
2 15 0 
-2 -15 0 
-2 -3 0 
-2 -16 0 
-2 -3 -16 0 
-3 2 4 17 0 
-3 -2 -4 0 
-3 -2 -17 0 
-3 -4 -17 0 
-4 3 5 18 0 
-4 -3 -5 0 
-4 -3 -18 0 
-4 -5 -18 0 
-5 4 6 19 0 
-5 -4 -6 0 
-5 -4 -19 0 
-5 -6 -19 0 
-6 5 7 20 0 
-6 -5 -7 0 
-6 -5 -20 0 
-6 -7 -20 0 
-7 6 8 21 0 
-7 -6 -8 0 
-7 -6 -21 0 
-7 -8 -21 0 
-8 7 9 22 0 
-8 -7 -9 0 
-8 -7 -22 0 
-8 -9 -22 0 
-9 8 10 23 0 
-9 -8 -10 0 
-9 -8 -23 0 
-9 -10 -23 0 
-10 9 11 24 0 
-10 -9 -11 0 
-10 -9 -24 0 
-10 -11 -24 0 
-11 10 12 25 0 
-11 -10 -12 0 
-11 -10 -25 0 
-11 -12 -25 0 
-12 11 13 26 0 
-12 -11 -13 0 
-12 -11 -26 0 
-12 -13 -26 0 
-13 12 14 27 0 
-13 -12 -14 0 
-13 -12 -27 0 
-13 -14 -27 0 
-14 13 28 0 
-14 -13 -28 0 
-15 -29 -16 0 
-15 -29 0 
-15 -16 0 
-16 -2 -15 0 
-16 -2 -17 0 
-16 -2 -30 0 
-16 2 15 17 30 0 
-16 -15 -17 0 
-16 -15 -30 0 
-16 -17 -30 0 
-17 -3 -16 0 
-17 -3 -18 0 
-17 -3 -31 0 
-17 3 16 18 31 0 
-17 -16 -18 0 
-17 -16 -31 0 
-17 -18 -31 0 
-18 -4 -17 0 
-18 -4 -19 0 
-18 -4 -32 0 
-18 4 17 19 32 0 
-18 -17 -19 0 
-18 -17 -32 0 
-18 -19 -32 0 
-19 -5 -18 0 
-19 -5 -20 0 
-19 -5 -33 0 
-19 5 18 20 33 0 
-19 -18 -20 0 
-19 -18 -33 0 
-19 -20 -33 0 
-20 -6 -19 0 
-20 -6 -21 0 
-20 -6 -34 0 
-20 6 19 21 34 0 
-20 -19 -21 0 
-20 -19 -34 0 
-20 -21 -34 0 
-21 -7 -20 0 
-21 -7 -22 0 
-21 -7 -35 0 
-21 7 20 22 35 0 
-21 -20 -22 0 
-21 -20 -35 0 
-21 -22 -35 0 
-22 -8 -21 0 
-22 -8 -23 0 
-22 -8 -36 0 
-22 8 21 23 36 0 
-22 -21 -23 0 
-22 -21 -36 0 
-22 -23 -36 0 
-23 -9 -22 0 
-23 -9 -24 0 
-23 -9 -37 0 
-23 9 22 24 37 0 
-23 -22 -24 0 
-23 -22 -37 0 
-23 -24 -37 0 
-24 -10 -23 0 
-24 -10 -25 0 
-24 -10 -38 0 
-24 10 23 25 38 0 
-24 -23 -25 0 
-24 -23 -38 0 
-24 -25 -38 0 
-25 -11 -24 0 
-25 -11 -26 0 
-25 -11 -39 0 
-25 11 24 26 39 0 
-25 -24 -26 0 
-25 -24 -39 0 
-25 -26 -39 0 
-26 -12 -25 0 
-26 -12 -27 0 
-26 -12 -40 0 
-26 12 25 27 40 0 
-26 -25 -27 0 
-26 -25 -40 0 
-26 -27 -40 0 
-27 -13 -26 0 
-27 -13 -28 0 
-27 -13 -41 0 
-27 13 26 28 41 0 
-27 -26 -28 0 
-27 -26 -41 0 
-27 -28 -41 0 
-28 42 27 14 0 
-28 -42 -27 0 
-28 -42 -14 0 
-28 -27 -14 0 
-29 43 30 15 0 
-29 -43 -30 0 
-29 -43 -15 0 
-29 -30 -15 0 
-30 -16 -29 0 
-30 -16 -31 0 
-30 -16 -44 0 
-30 16 29 31 44 0 
-30 -29 -31 0 
-30 -29 -44 0 
-30 -31 -44 0 
-31 -17 -30 0 
-31 -17 -32 0 
-31 -17 -45 0 
-31 17 30 32 45 0 
-31 -30 -32 0 
-31 -30 -45 0 
-31 -32 -45 0 
-32 -18 -31 0 
-32 -18 -33 0 
-32 -18 -46 0 
-32 18 31 33 46 0 
-32 -31 -33 0 
-32 -31 -46 0 
-32 -33 -46 0 
-33 -19 -32 0 
-33 -19 -34 0 
-33 -19 -47 0 
-33 19 32 34 47 0 
-33 -32 -34 0 
-33 -32 -47 0 
-33 -34 -47 0 
-34 -20 -33 0 
-34 -20 -35 0 
-34 -20 -48 0 
-34 20 33 35 48 0 
-34 -33 -35 0 
-34 -33 -48 0 
-34 -35 -48 0 
-35 -21 -34 0 
-35 -21 -36 0 
-35 -21 -49 0 
-35 21 34 36 49 0 
-35 -34 -36 0 
-35 -34 -49 0 
-35 -36 -49 0 
-36 -22 -35 0 
-36 -22 -37 0 
-36 -22 -50 0 
-36 22 35 37 50 0 
-36 -35 -37 0 
-36 -35 -50 0 
-36 -37 -50 0 
-37 -23 -36 0 
-37 -23 -38 0 
-37 -23 -51 0 
-37 23 36 38 51 0 
-37 -36 -38 0 
-37 -36 -51 0 
-37 -38 -51 0 
-38 -24 -37 0 
-38 -24 -39 0 
-38 -24 -52 0 
-38 24 37 39 52 0 
-38 -37 -39 0 
-38 -37 -52 0 
-38 -39 -52 0 
-39 -25 -38 0 
-39 -25 -40 0 
-39 -25 -53 0 
-39 25 38 40 53 0 
-39 -38 -40 0 
-39 -38 -53 0 
-39 -40 -53 0 
-40 -26 -39 0 
-40 -26 -41 0 
-40 -26 -54 0 
-40 26 39 41 54 0 
-40 -39 -41 0 
-40 -39 -54 0 
-40 -41 -54 0 
-41 -27 -40 0 
-41 -27 -42 0 
-41 -27 -55 0 
-41 27 40 42 55 0 
-41 -40 -42 0 
-41 -40 -55 0 
-41 -42 -55 0 
-42 56 41 28 0 
-42 -56 -41 0 
-42 -56 -28 0 
-42 -41 -28 0 
-43 57 44 29 0 
-43 -57 -44 0 
-43 -57 -29 0 
-43 -44 -29 0 
-44 -30 -43 0 
-44 -30 -45 0 
-44 -30 -58 0 
-44 30 43 45 58 0 
-44 -43 -45 0 
-44 -43 -58 0 
-44 -45 -58 0 
-45 -31 -44 0 
-45 -31 -46 0 
-45 -31 -59 0 
-45 31 44 46 59 0 
-45 -44 -46 0 
-45 -44 -59 0 
-45 -46 -59 0 
-46 -32 -45 0 
-46 -32 -47 0 
-46 -32 -60 0 
-46 32 45 47 60 0 
-46 -45 -47 0 
-46 -45 -60 0 
-46 -47 -60 0 
-47 -33 -46 0 
-47 -33 -48 0 
-47 -33 -61 0 
-47 33 46 48 61 0 
-47 -46 -48 0 
-47 -46 -61 0 
-47 -48 -61 0 
-48 -34 -47 0 
-48 -34 -49 0 
-48 -34 -62 0 
-48 34 47 49 62 0 
-48 -47 -49 0 
-48 -47 -62 0 
-48 -49 -62 0 
-49 -35 -48 0 
-49 -35 -50 0 
-49 -35 -63 0 
-49 35 48 50 63 0 
-49 -48 -50 0 
-49 -48 -63 0 
-49 -50 -63 0 
-50 -36 -49 0 
-50 -36 -51 0 
-50 -36 -64 0 
-50 36 49 51 64 0 
-50 -49 -51 0 
-50 -49 -64 0 
-50 -51 -64 0 
-51 -37 -50 0 
-51 -37 -52 0 
-51 -37 -65 0 
-51 37 50 52 65 0 
-51 -50 -52 0 
-51 -50 -65 0 
-51 -52 -65 0 
-52 -38 -51 0 
-52 -38 -53 0 
-52 -38 -66 0 
-52 38 51 53 66 0 
-52 -51 -53 0 
-52 -51 -66 0 
-52 -53 -66 0 
-53 -39 -52 0 
-53 -39 -54 0 
-53 -39 -67 0 
-53 39 52 54 67 0 
-53 -52 -54 0 
-53 -52 -67 0 
-53 -54 -67 0 
-54 -40 -53 0 
-54 -40 -55 0 
-54 -40 -68 0 
-54 40 53 55 68 0 
-54 -53 -55 0 
-54 -53 -68 0 
-54 -55 -68 0 
-55 -41 -54 0 
-55 -41 -56 0 
-55 -41 -69 0 
-55 41 54 56 69 0 
-55 -54 -56 0 
-55 -54 -69 0 
-55 -56 -69 0 
-56 70 55 42 0 
-56 -70 -55 0 
-56 -70 -42 0 
-56 -55 -42 0 
-57 71 58 43 0 
-57 -71 -58 0 
-57 -71 -43 0 
-57 -58 -43 0 
-58 -44 -57 0 
-58 -44 -59 0 
-58 -44 -72 0 
-58 44 57 59 72 0 
-58 -57 -59 0 
-58 -57 -72 0 
-58 -59 -72 0 
-59 -45 -58 0 
-59 -45 -60 0 
-59 -45 -73 0 
-59 45 58 60 73 0 
-59 -58 -60 0 
-59 -58 -73 0 
-59 -60 -73 0 
-60 -46 -59 0 
-60 -46 -61 0 
-60 -46 -74 0 
-60 46 59 61 74 0 
-60 -59 -61 0 
-60 -59 -74 0 
-60 -61 -74 0 
-61 -47 -60 0 
-61 -47 -62 0 
-61 -47 -75 0 
-61 47 60 62 75 0 
-61 -60 -62 0 
-61 -60 -75 0 
-61 -62 -75 0 
-62 -48 -61 0 
-62 -48 -63 0 
-62 -48 -76 0 
-62 48 61 63 76 0 
-62 -61 -63 0 
-62 -61 -76 0 
-62 -63 -76 0 
-63 -49 -62 0 
-63 -49 -64 0 
-63 -49 -77 0 
-63 49 62 64 77 0 
-63 -62 -64 0 
-63 -62 -77 0 
-63 -64 -77 0 
-64 -50 -63 0 
-64 -50 -65 0 
-64 -50 -78 0 
-64 50 63 65 78 0 
-64 -63 -65 0 
-64 -63 -78 0 
-64 -65 -78 0 
-65 -51 -64 0 
-65 -51 -66 0 
-65 -51 -79 0 
-65 51 64 66 79 0 
-65 -64 -66 0 
-65 -64 -79 0 
-65 -66 -79 0 
-66 -52 -65 0 
-66 -52 -67 0 
-66 -52 -80 0 
-66 52 65 67 80 0 
-66 -65 -67 0 
-66 -65 -80 0 
-66 -67 -80 0 
-67 -53 -66 0 
-67 -53 -68 0 
-67 -53 -81 0 
-67 53 66 68 81 0 
-67 -66 -68 0 
-67 -66 -81 0 
-67 -68 -81 0 
-68 -54 -67 0 
-68 -54 -69 0 
-68 -54 -82 0 
-68 54 67 69 82 0 
-68 -67 -69 0 
-68 -67 -82 0 
-68 -69 -82 0 
-69 -55 -68 0 
-69 -55 -70 0 
-69 -55 -83 0 
-69 55 68 70 83 0 
-69 -68 -70 0 
-69 -68 -83 0 
-69 -70 -83 0 
-70 84 69 56 0 
-70 -84 -69 0 
-70 -84 -56 0 
-70 -69 -56 0 
-71 85 72 57 0 
-71 -85 -72 0 
-71 -85 -57 0 
-71 -72 -57 0 
-72 -58 -71 0 
-72 -58 -73 0 
-72 -58 -86 0 
-72 58 71 73 86 0 
-72 -71 -73 0 
-72 -71 -86 0 
-72 -73 -86 0 
-73 -59 -72 0 
-73 -59 -74 0 
-73 -59 -87 0 
-73 59 72 74 87 0 
-73 -72 -74 0 
-73 -72 -87 0 
-73 -74 -87 0 
-74 -60 -73 0 
-74 -60 -75 0 
-74 -60 -88 0 
-74 60 73 75 88 0 
-74 -73 -75 0 
-74 -73 -88 0 
-74 -75 -88 0 
-75 -61 -74 0 
-75 -61 -76 0 
-75 -61 -89 0 
-75 61 74 76 89 0 
-75 -74 -76 0 
-75 -74 -89 0 
-75 -76 -89 0 
-76 -62 -75 0 
-76 -62 -77 0 
-76 -62 -90 0 
-76 62 75 77 90 0 
-76 -75 -77 0 
-76 -75 -90 0 
-76 -77 -90 0 
-77 -63 -76 0 
-77 -63 -78 0 
-77 -63 -91 0 
-77 63 76 78 91 0 
-77 -76 -78 0 
-77 -76 -91 0 
-77 -78 -91 0 
-78 -64 -77 0 
-78 -64 -79 0 
-78 -64 -92 0 
-78 64 77 79 92 0 
-78 -77 -79 0 
-78 -77 -92 0 
-78 -79 -92 0 
-79 -65 -78 0 
-79 -65 -80 0 
-79 -65 -93 0 
-79 65 78 80 93 0 
-79 -78 -80 0 
-79 -78 -93 0 
-79 -80 -93 0 
-80 -66 -79 0 
-80 -66 -81 0 
-80 -66 -94 0 
-80 66 79 81 94 0 
-80 -79 -81 0 
-80 -79 -94 0 
-80 -81 -94 0 
-81 -67 -80 0 
-81 -67 -82 0 
-81 -67 -95 0 
-81 67 80 82 95 0 
-81 -80 -82 0 
-81 -80 -95 0 
-81 -82 -95 0 
-82 -68 -81 0 
-82 -68 -83 0 
-82 -68 -96 0 
-82 68 81 83 96 0 
-82 -81 -83 0 
-82 -81 -96 0 
-82 -83 -96 0 
-83 -69 -82 0 
-83 -69 -84 0 
-83 -69 -97 0 
-83 69 82 84 97 0 
-83 -82 -84 0 
-83 -82 -97 0 
-83 -84 -97 0 
-84 98 83 70 0 
-84 -98 -83 0 
-84 -98 -70 0 
-84 -83 -70 0 
-85 99 86 71 0 
-85 -99 -86 0 
-85 -99 -71 0 
-85 -86 -71 0 
-86 -72 -85 0 
-86 -72 -87 0 
-86 -72 -100 0 
-86 72 85 87 100 0 
-86 -85 -87 0 
-86 -85 -100 0 
-86 -87 -100 0 
-87 -73 -86 0 
-87 -73 -88 0 
-87 -73 -101 0 
-87 73 86 88 101 0 
-87 -86 -88 0 
-87 -86 -101 0 
-87 -88 -101 0 
-88 -74 -87 0 
-88 -74 -89 0 
-88 -74 -102 0 
-88 74 87 89 102 0 
-88 -87 -89 0 
-88 -87 -102 0 
-88 -89 -102 0 
-89 -75 -88 0 
-89 -75 -90 0 
-89 -75 -103 0 
-89 75 88 90 103 0 
-89 -88 -90 0 
-89 -88 -103 0 
-89 -90 -103 0 
-90 -76 -89 0 
-90 -76 -91 0 
-90 -76 -104 0 
-90 76 89 91 104 0 
-90 -89 -91 0 
-90 -89 -104 0 
-90 -91 -104 0 
-91 -77 -90 0 
-91 -77 -92 0 
-91 -77 -105 0 
-91 77 90 92 105 0 
-91 -90 -92 0 
-91 -90 -105 0 
-91 -92 -105 0 
-92 -78 -91 0 
-92 -78 -93 0 
-92 -78 -106 0 
-92 78 91 93 106 0 
-92 -91 -93 0 
-92 -91 -106 0 
-92 -93 -106 0 
-93 -79 -92 0 
-93 -79 -94 0 
-93 -79 -107 0 
-93 79 92 94 107 0 
-93 -92 -94 0 
-93 -92 -107 0 
-93 -94 -107 0 
-94 -80 -93 0 
-94 -80 -95 0 
-94 -80 -108 0 
-94 80 93 95 108 0 
-94 -93 -95 0 
-94 -93 -108 0 
-94 -95 -108 0 
-95 -81 -94 0 
-95 -81 -96 0 
-95 -81 -109 0 
-95 81 94 96 109 0 
-95 -94 -96 0 
-95 -94 -109 0 
-95 -96 -109 0 
-96 -82 -95 0 
-96 -82 -97 0 
-96 -82 -110 0 
-96 82 95 97 110 0 
-96 -95 -97 0 
-96 -95 -110 0 
-96 -97 -110 0 
-97 -83 -96 0 
-97 -83 -98 0 
-97 -83 -111 0 
-97 83 96 98 111 0 
-97 -96 -98 0 
-97 -96 -111 0 
-97 -98 -111 0 
-98 112 97 84 0 
-98 -112 -97 0 
-98 -112 -84 0 
-98 -97 -84 0 
-99 113 100 85 0 
-99 -113 -100 0 
-99 -113 -85 0 
-99 -100 -85 0 
-100 -86 -99 0 
-100 -86 -101 0 
-100 -86 -114 0 
-100 86 99 101 114 0 
-100 -99 -101 0 
-100 -99 -114 0 
-100 -101 -114 0 
-101 -87 -100 0 
-101 -87 -102 0 
-101 -87 -115 0 
-101 87 100 102 115 0 
-101 -100 -102 0 
-101 -100 -115 0 
-101 -102 -115 0 
-102 -88 -101 0 
-102 -88 -103 0 
-102 -88 -116 0 
-102 88 101 103 116 0 
-102 -101 -103 0 
-102 -101 -116 0 
-102 -103 -116 0 
-103 -89 -102 0 
-103 -89 -104 0 
-103 -89 -117 0 
-103 89 102 104 117 0 
-103 -102 -104 0 
-103 -102 -117 0 
-103 -104 -117 0 
-104 -90 -103 0 
-104 -90 -105 0 
-104 -90 -118 0 
-104 90 103 105 118 0 
-104 -103 -105 0 
-104 -103 -118 0 
-104 -105 -118 0 
-105 -91 -104 0 
-105 -91 -106 0 
-105 -91 -119 0 
-105 91 104 106 119 0 
-105 -104 -106 0 
-105 -104 -119 0 
-105 -106 -119 0 
-106 -92 -105 0 
-106 -92 -107 0 
-106 -92 -120 0 
-106 92 105 107 120 0 
-106 -105 -107 0 
-106 -105 -120 0 
-106 -107 -120 0 
-107 -93 -106 0 
-107 -93 -108 0 
-107 -93 -121 0 
-107 93 106 108 121 0 
-107 -106 -108 0 
-107 -106 -121 0 
-107 -108 -121 0 
-108 -94 -107 0 
-108 -94 -109 0 
-108 -94 -122 0 
-108 94 107 109 122 0 
-108 -107 -109 0 
-108 -107 -122 0 
-108 -109 -122 0 
-109 -95 -108 0 
-109 -95 -110 0 
-109 -95 -123 0 
-109 95 108 110 123 0 
-109 -108 -110 0 
-109 -108 -123 0 
-109 -110 -123 0 
-110 -96 -109 0 
-110 -96 -111 0 
-110 -96 -124 0 
-110 96 109 111 124 0 
-110 -109 -111 0 
-110 -109 -124 0 
-110 -111 -124 0 
-111 -97 -110 0 
-111 -97 -112 0 
-111 -97 -125 0 
-111 97 110 112 125 0 
-111 -110 -112 0 
-111 -110 -125 0 
-111 -112 -125 0 
-112 126 111 98 0 
-112 -126 -111 0 
-112 -126 -98 0 
-112 -111 -98 0 
-113 127 114 99 0 
-113 -127 -114 0 
-113 -127 -99 0 
-113 -114 -99 0 
-114 -100 -113 0 
-114 -100 -115 0 
-114 -100 -128 0 
-114 100 113 115 128 0 
-114 -113 -115 0 
-114 -113 -128 0 
-114 -115 -128 0 
-115 -101 -114 0 
-115 -101 -116 0 
-115 -101 -129 0 
-115 101 114 116 129 0 
-115 -114 -116 0 
-115 -114 -129 0 
-115 -116 -129 0 
-116 -102 -115 0 
-116 -102 -117 0 
-116 -102 -130 0 
-116 102 115 117 130 0 
-116 -115 -117 0 
-116 -115 -130 0 
-116 -117 -130 0 
-117 -103 -116 0 
-117 -103 -118 0 
-117 -103 -131 0 
-117 103 116 118 131 0 
-117 -116 -118 0 
-117 -116 -131 0 
-117 -118 -131 0 
-118 -104 -117 0 
-118 -104 -119 0 
-118 -104 -132 0 
-118 104 117 119 132 0 
-118 -117 -119 0 
-118 -117 -132 0 
-118 -119 -132 0 
-119 -105 -118 0 
-119 -105 -120 0 
-119 -105 -133 0 
-119 105 118 120 133 0 
-119 -118 -120 0 
-119 -118 -133 0 
-119 -120 -133 0 
-120 -106 -119 0 
-120 -106 -121 0 
-120 -106 -134 0 
-120 106 119 121 134 0 
-120 -119 -121 0 
-120 -119 -134 0 
-120 -121 -134 0 
-121 -107 -120 0 
-121 -107 -122 0 
-121 -107 -135 0 
-121 107 120 122 135 0 
-121 -120 -122 0 
-121 -120 -135 0 
-121 -122 -135 0 
-122 -108 -121 0 
-122 -108 -123 0 
-122 -108 -136 0 
-122 108 121 123 136 0 
-122 -121 -123 0 
-122 -121 -136 0 
-122 -123 -136 0 
-123 -109 -122 0 
-123 -109 -124 0 
-123 -109 -137 0 
-123 109 122 124 137 0 
-123 -122 -124 0 
-123 -122 -137 0 
-123 -124 -137 0 
-124 -110 -123 0 
-124 -110 -125 0 
-124 -110 -138 0 
-124 110 123 125 138 0 
-124 -123 -125 0 
-124 -123 -138 0 
-124 -125 -138 0 
-125 -111 -124 0 
-125 -111 -126 0 
-125 -111 -139 0 
-125 111 124 126 139 0 
-125 -124 -126 0 
-125 -124 -139 0 
-125 -126 -139 0 
-126 140 125 112 0 
-126 -140 -125 0 
-126 -140 -112 0 
-126 -125 -112 0 
-127 141 128 113 0 
-127 -141 -128 0 
-127 -141 -113 0 
-127 -128 -113 0 
-128 -114 -127 0 
-128 -114 -129 0 
-128 -114 -142 0 
-128 114 127 129 142 0 
-128 -127 -129 0 
-128 -127 -142 0 
-128 -129 -142 0 
-129 -115 -128 0 
-129 -115 -130 0 
-129 -115 -143 0 
-129 115 128 130 143 0 
-129 -128 -130 0 
-129 -128 -143 0 
-129 -130 -143 0 
-130 -116 -129 0 
-130 -116 -131 0 
-130 -116 -144 0 
-130 116 129 131 144 0 
-130 -129 -131 0 
-130 -129 -144 0 
-130 -131 -144 0 
-131 -117 -130 0 
-131 -117 -132 0 
-131 -117 -145 0 
-131 117 130 132 145 0 
-131 -130 -132 0 
-131 -130 -145 0 
-131 -132 -145 0 
-132 -118 -131 0 
-132 -118 -133 0 
-132 -118 -146 0 
-132 118 131 133 146 0 
-132 -131 -133 0 
-132 -131 -146 0 
-132 -133 -146 0 
-133 -119 -132 0 
-133 -119 -134 0 
-133 -119 -147 0 
-133 119 132 134 147 0 
-133 -132 -134 0 
-133 -132 -147 0 
-133 -134 -147 0 
-134 -120 -133 0 
-134 -120 -135 0 
-134 -120 -148 0 
-134 120 133 135 148 0 
-134 -133 -135 0 
-134 -133 -148 0 
-134 -135 -148 0 
-135 -121 -134 0 
-135 -121 -136 0 
-135 -121 -149 0 
-135 121 134 136 149 0 
-135 -134 -136 0 
-135 -134 -149 0 
-135 -136 -149 0 
-136 -122 -135 0 
-136 -122 -137 0 
-136 -122 -150 0 
-136 122 135 137 150 0 
-136 -135 -137 0 
-136 -135 -150 0 
-136 -137 -150 0 
-137 -123 -136 0 
-137 -123 -138 0 
-137 -123 -151 0 
-137 123 136 138 151 0 
-137 -136 -138 0 
-137 -136 -151 0 
-137 -138 -151 0 
-138 -124 -137 0 
-138 -124 -139 0 
-138 -124 -152 0 
-138 124 137 139 152 0 
-138 -137 -139 0 
-138 -137 -152 0 
-138 -139 -152 0 
-139 -125 -138 0 
-139 -125 -140 0 
-139 -125 -153 0 
-139 125 138 140 153 0 
-139 -138 -140 0 
-139 -138 -153 0 
-139 -140 -153 0 
-140 154 139 126 0 
-140 -154 -139 0 
-140 -154 -126 0 
-140 -139 -126 0 
-141 155 142 127 0 
-141 -155 -142 0 
-141 -155 -127 0 
-141 -142 -127 0 
-142 -128 -141 0 
-142 -128 -143 0 
-142 -128 -156 0 
-142 128 141 143 156 0 
-142 -141 -143 0 
-142 -141 -156 0 
-142 -143 -156 0 
-143 -129 -142 0 
-143 -129 -144 0 
-143 -129 -157 0 
-143 129 142 144 157 0 
-143 -142 -144 0 
-143 -142 -157 0 
-143 -144 -157 0 
-144 -130 -143 0 
-144 -130 -145 0 
-144 -130 -158 0 
-144 130 143 145 158 0 
-144 -143 -145 0 
-144 -143 -158 0 
-144 -145 -158 0 
-145 -131 -144 0 
-145 -131 -146 0 
-145 -131 -159 0 
-145 131 144 146 159 0 
-145 -144 -146 0 
-145 -144 -159 0 
-145 -146 -159 0 
-146 -132 -145 0 
-146 -132 -147 0 
-146 -132 -160 0 
-146 132 145 147 160 0 
-146 -145 -147 0 
-146 -145 -160 0 
-146 -147 -160 0 
-147 -133 -146 0 
-147 -133 -148 0 
-147 -133 -161 0 
-147 133 146 148 161 0 
-147 -146 -148 0 
-147 -146 -161 0 
-147 -148 -161 0 
-148 -134 -147 0 
-148 -134 -149 0 
-148 -134 -162 0 
-148 134 147 149 162 0 
-148 -147 -149 0 
-148 -147 -162 0 
-148 -149 -162 0 
-149 -135 -148 0 
-149 -135 -150 0 
-149 -135 -163 0 
-149 135 148 150 163 0 
-149 -148 -150 0 
-149 -148 -163 0 
-149 -150 -163 0 
-150 -136 -149 0 
-150 -136 -151 0 
-150 -136 -164 0 
-150 136 149 151 164 0 
-150 -149 -151 0 
-150 -149 -164 0 
-150 -151 -164 0 
-151 -137 -150 0 
-151 -137 -152 0 
-151 -137 -165 0 
-151 137 150 152 165 0 
-151 -150 -152 0 
-151 -150 -165 0 
-151 -152 -165 0 
-152 -138 -151 0 
-152 -138 -153 0 
-152 -138 -166 0 
-152 138 151 153 166 0 
-152 -151 -153 0 
-152 -151 -166 0 
-152 -153 -166 0 
-153 -139 -152 0 
-153 -139 -154 0 
-153 -139 -167 0 
-153 139 152 154 167 0 
-153 -152 -154 0 
-153 -152 -167 0 
-153 -154 -167 0 
-154 168 153 140 0 
-154 -168 -153 0 
-154 -168 -140 0 
-154 -153 -140 0 
-155 169 156 141 0 
-155 -169 -156 0 
-155 -169 -141 0 
-155 -156 -141 0 
-156 -142 -155 0 
-156 -142 -157 0 
-156 -142 -170 0 
-156 142 155 157 170 0 
-156 -155 -157 0 
-156 -155 -170 0 
-156 -157 -170 0 
-157 -143 -156 0 
-157 -143 -158 0 
-157 -143 -171 0 
-157 143 156 158 171 0 
-157 -156 -158 0 
-157 -156 -171 0 
-157 -158 -171 0 
-158 -144 -157 0 
-158 -144 -159 0 
-158 -144 -172 0 
-158 144 157 159 172 0 
-158 -157 -159 0 
-158 -157 -172 0 
-158 -159 -172 0 
-159 -145 -158 0 
-159 -145 -160 0 
-159 -145 -173 0 
-159 145 158 160 173 0 
-159 -158 -160 0 
-159 -158 -173 0 
-159 -160 -173 0 
-160 -146 -159 0 
-160 -146 -161 0 
-160 -146 -174 0 
-160 146 159 161 174 0 
-160 -159 -161 0 
-160 -159 -174 0 
-160 -161 -174 0 
-161 -147 -160 0 
-161 -147 -162 0 
-161 -147 -175 0 
-161 147 160 162 175 0 
-161 -160 -162 0 
-161 -160 -175 0 
-161 -162 -175 0 
-162 -148 -161 0 
-162 -148 -163 0 
-162 -148 -176 0 
-162 148 161 163 176 0 
-162 -161 -163 0 
-162 -161 -176 0 
-162 -163 -176 0 
-163 -149 -162 0 
-163 -149 -164 0 
-163 -149 -177 0 
-163 149 162 164 177 0 
-163 -162 -164 0 
-163 -162 -177 0 
-163 -164 -177 0 
-164 -150 -163 0 
-164 -150 -165 0 
-164 -150 -178 0 
-164 150 163 165 178 0 
-164 -163 -165 0 
-164 -163 -178 0 
-164 -165 -178 0 
-165 -151 -164 0 
-165 -151 -166 0 
-165 -151 -179 0 
-165 151 164 166 179 0 
-165 -164 -166 0 
-165 -164 -179 0 
-165 -166 -179 0 
-166 -152 -165 0 
-166 -152 -167 0 
-166 -152 -180 0 
-166 152 165 167 180 0 
-166 -165 -167 0 
-166 -165 -180 0 
-166 -167 -180 0 
-167 -153 -166 0 
-167 -153 -168 0 
-167 -153 -181 0 
-167 153 166 168 181 0 
-167 -166 -168 0 
-167 -166 -181 0 
-167 -168 -181 0 
-168 182 167 154 0 
-168 -182 -167 0 
-168 -182 -154 0 
-168 -167 -154 0 
-169 183 170 155 0 
-169 -183 -170 0 
-169 -183 -155 0 
-169 -170 -155 0 
-170 -156 -169 0 
-170 -156 -171 0 
-170 -156 -184 0 
-170 156 169 171 184 0 
-170 -169 -171 0 
-170 -169 -184 0 
-170 -171 -184 0 
-171 -157 -170 0 
-171 -157 -172 0 
-171 -157 -185 0 
-171 157 170 172 185 0 
-171 -170 -172 0 
-171 -170 -185 0 
-171 -172 -185 0 
-172 -158 -171 0 
-172 -158 -173 0 
-172 -158 -186 0 
-172 158 171 173 186 0 
-172 -171 -173 0 
-172 -171 -186 0 
-172 -173 -186 0 
-173 -159 -172 0 
-173 -159 -174 0 
-173 -159 -187 0 
-173 159 172 174 187 0 
-173 -172 -174 0 
-173 -172 -187 0 
-173 -174 -187 0 
-174 -160 -173 0 
-174 -160 -175 0 
-174 -160 -188 0 
-174 160 173 175 188 0 
-174 -173 -175 0 
-174 -173 -188 0 
-174 -175 -188 0 
-175 -161 -174 0 
-175 -161 -176 0 
-175 -161 -189 0 
-175 161 174 176 189 0 
-175 -174 -176 0 
-175 -174 -189 0 
-175 -176 -189 0 
-176 -162 -175 0 
-176 -162 -177 0 
-176 -162 -190 0 
-176 162 175 177 190 0 
-176 -175 -177 0 
-176 -175 -190 0 
-176 -177 -190 0 
-177 -163 -176 0 
-177 -163 -178 0 
-177 -163 -191 0 
-177 163 176 178 191 0 
-177 -176 -178 0 
-177 -176 -191 0 
-177 -178 -191 0 
-178 -164 -177 0 
-178 -164 -179 0 
-178 -164 -192 0 
-178 164 177 179 192 0 
-178 -177 -179 0 
-178 -177 -192 0 
-178 -179 -192 0 
-179 -165 -178 0 
-179 -165 -180 0 
-179 -165 -193 0 
-179 165 178 180 193 0 
-179 -178 -180 0 
-179 -178 -193 0 
-179 -180 -193 0 
-180 -166 -179 0 
-180 -166 -181 0 
-180 -166 -194 0 
-180 166 179 181 194 0 
-180 -179 -181 0 
-180 -179 -194 0 
-180 -181 -194 0 
-181 -167 -180 0 
-181 -167 -182 0 
-181 -167 -195 0 
-181 167 180 182 195 0 
-181 -180 -182 0 
-181 -180 -195 0 
-181 -182 -195 0 
-182 196 181 168 0 
-182 -196 -181 0 
-182 -196 -168 0 
-182 -181 -168 0 
-183 184 169 0 
-183 -184 -169 0 
-184 183 185 170 0 
-184 -183 -185 0 
-184 -183 -170 0 
-184 -185 -170 0 
-185 184 186 171 0 
-185 -184 -186 0 
-185 -184 -171 0 
-185 -186 -171 0 
-186 185 187 172 0 
-186 -185 -187 0 
-186 -185 -172 0 
-186 -187 -172 0 
-187 186 188 173 0 
-187 -186 -188 0 
-187 -186 -173 0 
-187 -188 -173 0 
-188 187 189 174 0 
-188 -187 -189 0 
-188 -187 -174 0 
-188 -189 -174 0 
-189 188 190 175 0 
-189 -188 -190 0 
-189 -188 -175 0 
-189 -190 -175 0 
-190 189 191 176 0 
-190 -189 -191 0 
-190 -189 -176 0 
-190 -191 -176 0 
-191 190 192 177 0 
-191 -190 -192 0 
-191 -190 -177 0 
-191 -192 -177 0 
-192 191 193 178 0 
-192 -191 -193 0 
-192 -191 -178 0 
-192 -193 -178 0 
-193 192 194 179 0 
-193 -192 -194 0 
-193 -192 -179 0 
-193 -194 -179 0 
-194 193 195 180 0 
-194 -193 -195 0 
-194 -193 -180 0 
-194 -195 -180 0 
-195 194 196 181 0 
-195 -194 -196 0 
-195 -194 -181 0 
-195 -196 -181 0 
-196 195 182 0 
-196 -195 -182 0 
